
(set-logic HORN)
(declare-fun Z_2168 () Int)
(declare-fun S_509 (Int) Int)
(declare-fun Z_2166 () Int)
(declare-fun S_508 (Int) Int)
(declare-fun diseqInt (Int Int) Bool)
(declare-fun unS_729 (Int Int) Bool)
(declare-fun isZ_476 (Int) Bool)
(declare-fun isS_476 (Int) Bool)
(assert (forall ((x_56466 Int))
	(unS_729 x_56466 (S_509 x_56466))))
(assert (isZ_476 Z_2168))
(assert (forall ((x_56468 Int))
	(isS_476 (S_509 x_56468))))
(assert (forall ((x_56469 Int))
	(diseqInt Z_2168 (S_509 x_56469))))
(assert (forall ((x_56470 Int))
	(diseqInt (S_509 x_56470) Z_2168)))
(assert (forall ((x_56471 Int) (x_56472 Int))
	(=> (diseqInt x_56471 x_56472) (diseqInt (S_509 x_56471) (S_509 x_56472)))))
(declare-fun add_390 (Int Int Int) Bool)
(declare-fun minus_385 (Int Int Int) Bool)
(declare-fun le_364 (Int Int) Bool)
(declare-fun ge_364 (Int Int) Bool)
(declare-fun lt_384 (Int Int) Bool)
(declare-fun gt_367 (Int Int) Bool)
(declare-fun mult_365 (Int Int Int) Bool)
(declare-fun div_364 (Int Int Int) Bool)
(declare-fun mod_366 (Int Int Int) Bool)
(assert (forall ((y_2403 Int))
	(add_390 y_2403 Z_2168 y_2403)))
(assert (forall ((x_56442 Int) (y_2403 Int) (r_437 Int))
	(=> (add_390 r_437 x_56442 y_2403) (add_390 (S_509 r_437) (S_509 x_56442) y_2403))))
(assert (forall ((y_2403 Int))
	(minus_385 Z_2168 Z_2168 y_2403)))
(assert (forall ((x_56442 Int) (y_2403 Int) (r_437 Int))
	(=> (minus_385 r_437 x_56442 y_2403) (minus_385 (S_509 r_437) (S_509 x_56442) y_2403))))
(assert (forall ((y_2403 Int))
	(le_364 Z_2168 y_2403)))
(assert (forall ((x_56442 Int) (y_2403 Int))
	(=> (le_364 x_56442 y_2403) (le_364 (S_509 x_56442) (S_509 y_2403)))))
(assert (forall ((y_2403 Int))
	(ge_364 y_2403 Z_2168)))
(assert (forall ((x_56442 Int) (y_2403 Int))
	(=> (ge_364 x_56442 y_2403) (ge_364 (S_509 x_56442) (S_509 y_2403)))))
(assert (forall ((y_2403 Int))
	(lt_384 Z_2168 (S_509 y_2403))))
(assert (forall ((x_56442 Int) (y_2403 Int))
	(=> (lt_384 x_56442 y_2403) (lt_384 (S_509 x_56442) (S_509 y_2403)))))
(assert (forall ((y_2403 Int))
	(gt_367 (S_509 y_2403) Z_2168)))
(assert (forall ((x_56442 Int) (y_2403 Int))
	(=> (gt_367 x_56442 y_2403) (gt_367 (S_509 x_56442) (S_509 y_2403)))))
(assert (forall ((y_2403 Int))
	(mult_365 Z_2168 Z_2168 y_2403)))
(assert (forall ((x_56442 Int) (y_2403 Int) (r_437 Int) (z_2169 Int))
	(=> (and (mult_365 r_437 x_56442 y_2403) (add_390 z_2169 r_437 y_2403)) (mult_365 z_2169 (S_509 x_56442) y_2403))))
(assert (forall ((x_56442 Int) (y_2403 Int))
	(=> (lt_384 x_56442 y_2403) (div_364 Z_2168 x_56442 y_2403))))
(assert (forall ((x_56442 Int) (y_2403 Int) (r_437 Int) (z_2169 Int))
	(=> (and (ge_364 x_56442 y_2403) (minus_385 z_2169 x_56442 y_2403) (div_364 r_437 z_2169 y_2403)) (div_364 (S_509 r_437) x_56442 y_2403))))
(assert (forall ((x_56442 Int) (y_2403 Int))
	(=> (lt_384 x_56442 y_2403) (mod_366 x_56442 x_56442 y_2403))))
(assert (forall ((x_56442 Int) (y_2403 Int) (r_437 Int) (z_2169 Int))
	(=> (and (ge_364 x_56442 y_2403) (minus_385 z_2169 x_56442 y_2403) (mod_366 r_437 z_2169 y_2403)) (mod_366 r_437 x_56442 y_2403))))
(declare-datatypes ((list_262 0)) (((nil_292) (cons_262 (head_524 Int) (tail_524 list_262)))))
(declare-fun diseqlist_262 (list_262 list_262) Bool)
(declare-fun head_525 (Int list_262) Bool)
(declare-fun tail_525 (list_262 list_262) Bool)
(declare-fun isnil_292 (list_262) Bool)
(declare-fun iscons_262 (list_262) Bool)
(assert (forall ((x_56444 Int) (x_56445 list_262))
	(head_525 x_56444 (cons_262 x_56444 x_56445))))
(assert (forall ((x_56444 Int) (x_56445 list_262))
	(tail_525 x_56445 (cons_262 x_56444 x_56445))))
(assert (isnil_292 nil_292))
(assert (forall ((x_56447 Int) (x_56448 list_262))
	(iscons_262 (cons_262 x_56447 x_56448))))
(assert (forall ((x_56449 Int) (x_56450 list_262))
	(diseqlist_262 nil_292 (cons_262 x_56449 x_56450))))
(assert (forall ((x_56451 Int) (x_56452 list_262))
	(diseqlist_262 (cons_262 x_56451 x_56452) nil_292)))
(assert (forall ((x_56453 Int) (x_56454 list_262) (x_56455 Int) (x_56456 list_262))
	(=> (diseqInt x_56453 x_56455) (diseqlist_262 (cons_262 x_56453 x_56454) (cons_262 x_56455 x_56456)))))
(assert (forall ((x_56453 Int) (x_56454 list_262) (x_56455 Int) (x_56456 list_262))
	(=> (diseqlist_262 x_56454 x_56456) (diseqlist_262 (cons_262 x_56453 x_56454) (cons_262 x_56455 x_56456)))))
(declare-fun diseqInt (Int Int) Bool)
(declare-fun projS_223 (Int Int) Bool)
(declare-fun isZ_475 (Int) Bool)
(declare-fun isS_475 (Int) Bool)
(assert (forall ((x_56458 Int))
	(projS_223 x_56458 (S_508 x_56458))))
(assert (isZ_475 Z_2166))
(assert (forall ((x_56460 Int))
	(isS_475 (S_508 x_56460))))
(assert (forall ((x_56461 Int))
	(diseqInt Z_2166 (S_508 x_56461))))
(assert (forall ((x_56462 Int))
	(diseqInt (S_508 x_56462) Z_2166)))
(assert (forall ((x_56463 Int) (x_56464 Int))
	(=> (diseqInt x_56463 x_56464) (diseqInt (S_508 x_56463) (S_508 x_56464)))))
(declare-fun length_53 (Int list_262) Bool)
(assert (forall ((x_56430 Int) (y_2400 Int) (xs_695 list_262))
	(=> (length_53 x_56430 xs_695) (length_53 (S_508 x_56430) (cons_262 y_2400 xs_695)))))
(assert (length_53 Z_2166 nil_292))
(declare-fun double_1 (Int Int) Bool)
(assert (forall ((x_56433 Int) (y_2401 Int))
	(=> (double_1 x_56433 y_2401) (double_1 (S_508 (S_508 x_56433)) (S_508 y_2401)))))
(assert (double_1 Z_2166 Z_2166))
(declare-fun x_56426 (list_262 list_262 list_262) Bool)
(assert (forall ((x_56436 list_262) (z_2167 Int) (xs_696 list_262) (y_2402 list_262))
	(=> (x_56426 x_56436 xs_696 y_2402) (x_56426 (cons_262 z_2167 x_56436) (cons_262 z_2167 xs_696) y_2402))))
(assert (forall ((x_56437 list_262))
	(x_56426 x_56437 nil_292 x_56437)))
(assert (forall ((x_56438 list_262) (x_56439 Int) (x_56440 Int) (x_56441 Int) (x_56428 list_262))
	(=> (and true (diseqInt x_56439 x_56441) (x_56426 x_56438 x_56428 x_56428) (length_53 x_56439 x_56438) (length_53 x_56440 x_56428) (double_1 x_56441 x_56440)) false)))
(check-sat)
